Minimize
  0.0625 y_0 + 0.0833333333333333 y_1 + 0.0588235294117647 y_2
   + 0.0476190476190476 y_3 + 0.0625 y_4 + 0.1111111111111111 y_5
   + 0.1111111111111111 y_6 + 0.0476190476190476 y_7
   + 0.1111111111111111 y_8 + 0.0588235294117647 y_9 + 0.2 y_10
   + 0.1666666666666667 y_11 + 0.0476190476190476 y_12 + 0.0625 y_13
   + 0.05 y_14 + 0.0833333333333333 y_15 + 0.0909090909090909 y_16
   + 0.1666666666666667 y_17 + 0.0555555555555556 y_18 + 0.0625 y_19
   + 0.0833333333333333 y_20 + 0.0434782608695652 y_21
   + 0.0666666666666667 y_22 + 0.0555555555555556 y_23
   + 0.0526315789473684 y_24 + 0.0833333333333333 y_25 + 0.05 y_26
   + 0.2 y_27 + 0.0476190476190476 y_28 + 0.0769230769230769 y_29
   + 0.0434782608695652 y_30 + 0.0833333333333333 y_31
   + 0.1111111111111111 y_32 + 0.125 y_33 + 0.0434782608695652 y_34
   + 0.0454545454545455 y_35 + 0.0588235294117647 y_36
   + 0.0666666666666667 y_37 + 0.1428571428571428 y_38
   + 0.0434782608695652 y_39 + 0.0454545454545455 y_40
   + 0.0476190476190476 y_41 + 0.0555555555555556 y_42 + 0.2 y_43
   + 0.0909090909090909 y_44 + 0.04 y_45 + 0.04 y_46
   + 0.0714285714285714 y_47 + 0.0625 y_48 + 0.0555555555555556 y_49
   + 0.0416666666666667 y_50 + 0.0384615384615385 y_51 + 0.1 y_52
   + 0.125 y_53 + 0.0666666666666667 y_54 + 0.0833333333333333 y_55
   + 0.0909090909090909 y_56 + 0.1 y_57 + 0.0909090909090909 y_58
   + 0.1666666666666667 y_59 + 0.0384615384615385 y_60 + 0.04 y_61
   + 0.05 y_62 + 0.0476190476190476 y_63 + 0.0666666666666667 y_64
   + 0.0714285714285714 y_65 + 0.0769230769230769 y_66
   + 0.0714285714285714 y_67 + 0.0909090909090909 y_68
   + 0.0714285714285714 y_69 + 0.0526315789473684 y_70
   + 0.0526315789473684 y_71 + 0.0625 y_72 + 0.0416666666666667 y_73
   + 0.037037037037037 y_74 + 0.0625 y_75 + 0.0909090909090909 y_76
   + 0.0454545454545455 y_77 + 0.05 y_78 + 0.0909090909090909 y_79
   + 0.0555555555555556 y_80 + 0.0454545454545455 y_81
   + 0.0555555555555556 y_82 + 0.037037037037037 y_83
   + 0.1666666666666667 y_84 + 0.0625 y_85 + 0.0714285714285714 y_86
   + 0.0526315789473684 y_87 + 0.0588235294117647 y_88
   + 0.1428571428571428 y_89 + 0.1428571428571428 y_90 + 0.0625 y_91
   + 0.0666666666666667 y_92 + 0.0434782608695652 y_93 + 0.05 y_94
   + 0.0526315789473684 y_95 + y_96 + 0.04 y_97 + 0.0416666666666667 y_98
   + 0.05 y_99 + 0.0434782608695652 y_100 + 0.0588235294117647 y_101
   + 0.0714285714285714 y_102 + 0.0714285714285714 y_103 + 0.0625 y_104
   + 0.1428571428571428 y_105 + 0.05 y_106 + 0.0666666666666667 y_107
   + 0.1428571428571428 y_108 + 0.05 y_109 + 0.0526315789473684 y_110
   + 0.0588235294117647 y_111 + 0.0476190476190476 y_112
   + 0.0416666666666667 y_113 + 0.0384615384615385 y_114
   + 0.0526315789473684 y_115 + 0.0434782608695652 y_116
   + 0.0666666666666667 y_117 + 0.0625 y_118 + 0.0769230769230769 y_119
   + 0.0555555555555556 y_120 + 0.0555555555555556 y_121
   + 0.3333333333333333 y_122 + 0.04 y_123 + 0.125 y_124 + 0.05 y_125
   + 0.05 y_126 + 0.0476190476190476 y_127 + 0.125 y_128
   + 0.0476190476190476 y_129 + 0.05 y_130 + 0.0833333333333333 y_131
   + 0.0555555555555556 y_132 + 0.125 y_133 + 0.0714285714285714 y_134
   + 0.0476190476190476 y_135 + 0.0526315789473684 y_136
   + 0.0588235294117647 y_137 + 0.1 y_138 + 0.05 y_139 + 0.1 y_140
   + 0.0909090909090909 y_141 + 0.0714285714285714 y_142
   + 0.1666666666666667 y_143 + 0.0526315789473684 y_144
   + 0.1428571428571428 y_145 + 0.0666666666666667 y_146
   + 0.0526315789473684 y_147 + 0.2 y_148 + 0.1 y_149
   + 0.0526315789473684 y_150 + 0.0434782608695652 y_151
   + 0.0588235294117647 y_152 + 0.0666666666666667 y_153
   + 0.0666666666666667 y_154 + 0.0526315789473684 y_155
   + 0.0526315789473684 y_156 + 0.125 y_157 + 0.05 y_158
   + 0.0769230769230769 y_159 + 0.05 y_160 + 0.0666666666666667 y_161
   + 0.1428571428571428 y_162 + 0.05 y_163 + 0.0555555555555556 y_164
   + 0.0526315789473684 y_165 + 0.1111111111111111 y_166
   + 0.1428571428571428 y_167 + 0.0588235294117647 y_168 + 0.0625 y_169
   + 0.0476190476190476 y_170 + 0.0833333333333333 y_171
   + 0.0714285714285714 y_172 + 0.0588235294117647 y_173
   + 0.0434782608695652 y_174 + 0.0555555555555556 y_175
   + 0.0666666666666667 y_176 + 0.1666666666666667 y_177
   + 0.0555555555555556 y_178 + 0.05 y_179 + 0.0666666666666667 y_180
   + 0.0588235294117647 y_181 + 0.05 y_182 + 0.0555555555555556 y_183
   + 0.0454545454545455 y_184 + 0.0714285714285714 y_185
   + 0.1111111111111111 y_186 + 0.2 y_187 + 0.0476190476190476 y_188
   + 0.1428571428571428 y_189 + 0.0833333333333333 y_190 + 0.1 y_191
   + 0.0526315789473684 y_192 + 0.0769230769230769 y_193 + 0.0625 y_194
   + 0.0666666666666667 y_195 + 0.0909090909090909 y_196
   + 0.0555555555555556 y_197 + 0.0526315789473684 y_198 + 0.1 y_199
   - 16.08313197467692 Constant
Subject To
 c_0: y_136 = 1
 c_1_0: y_0 + y_13 + y_72 + y_82 + y_181 >= 1
 c_1_1: y_1 + y_31 + y_47 + y_76 + y_119 >= 1
 c_1_2: y_2 + y_19 + y_22 + y_37 + y_117 + y_120 + y_137 + y_146 + y_154
   + y_164 >= 1
 c_1_3: y_3 + y_14 + y_21 + y_125 + y_127 + y_129 + y_139 + y_174 >= 1
 c_1_4: y_4 + y_64 + y_86 + y_88 + y_111 + y_118 + y_137 + y_176 + y_194
   >= 1
 c_1_5: y_5 + y_53 + y_56 + y_79 + y_108 + y_124 + y_141 + y_162 + y_189
   >= 1
 c_1_6: y_6 + y_8 + y_32 + y_33 + y_38 + y_166 >= 1
 c_1_7: y_7 + y_70 + y_81 + y_99 + y_110 + y_112 + y_139 + y_160 + y_163
   >= 1
 c_1_8: y_6 + y_8 + y_32 + y_33 + y_44 + y_166 >= 1
 c_1_9: y_9 + y_36 + y_91 + y_95 + y_107 + y_169 + y_175 >= 1
 c_1_10: y_10 + y_27 + y_59 + y_148 + y_187 >= 1
 c_1_11: y_11 + y_38 + y_43 + y_84 + y_89 + y_105 + y_145 + y_157 + y_167
   >= 1
 c_1_12: y_12 + y_30 + y_39 + y_106 + y_126 + y_130 + y_188 >= 1
 c_1_13: y_0 + y_13 + y_85 + y_102 + y_103 >= 1
 c_1_14: y_3 + y_14 + y_70 + y_120 + y_125 + y_127 + y_129 + y_139 + y_160
   + y_164 + y_165 >= 1
 c_1_15: y_15 + y_58 + y_65 + y_66 + y_69 + y_131 + y_172 >= 1
 c_1_16: y_16 + y_25 + y_138 + y_140 >= 1
 c_1_17: y_17 + y_108 + y_124 + y_143 + y_148 + y_162 + y_177 + y_189 >= 1
 c_1_18: y_18 + y_75 + y_101 + y_168 >= 1
 c_1_19: y_2 + y_19 + y_22 + y_37 + y_117 + y_120 + y_137 + y_146 + y_154
   + y_164 + y_194 >= 1
 c_1_20: y_20 + y_25 + y_55 + y_67 + y_131 >= 1
 c_1_21: y_3 + y_21 + y_127 + y_129 + y_174 >= 1
 c_1_22: y_2 + y_19 + y_22 + y_37 + y_54 + y_67 + y_117 + y_146 + y_154
   + y_161 >= 1
 c_1_23: y_23 + y_36 + y_71 + y_104 + y_111 >= 1
 c_1_24: y_24 + y_158 + y_168 + y_178 + y_183 >= 1
 c_1_25: y_16 + y_20 + y_25 + y_55 + y_67 >= 1
 c_1_26: y_26 + y_115 + y_121 + y_147 + y_156 + y_197 >= 1
 c_1_27: y_10 + y_27 + y_59 + y_148 + y_187 >= 1
 c_1_28: y_28 + y_127 + y_136 + y_155 >= 1
 c_1_29: y_29 + y_142 + y_159 + y_176 + y_190 >= 1
 c_1_30: y_12 + y_30 + y_39 + y_98 >= 1
 c_1_31: y_1 + y_31 + y_76 + y_119 >= 1
 c_1_32: y_6 + y_8 + y_32 + y_33 + y_38 + y_105 + y_166 + y_167 >= 1
 c_1_33: y_6 + y_8 + y_32 + y_33 + y_38 + y_84 + y_89 + y_105 + y_128
   + y_166 + y_167 >= 1
 c_1_34: y_34 + y_40 + y_50 + y_73 + y_100 + y_113 + y_116 + y_184 >= 1
 c_1_35: y_35 + y_40 + y_41 + y_63 + y_93 >= 1
 c_1_36: y_9 + y_23 + y_36 + y_91 + y_104 + y_107 + y_169 + y_175 >= 1
 c_1_37: y_2 + y_19 + y_22 + y_37 + y_54 + y_67 + y_117 + y_146 + y_154
   + y_161 >= 1
 c_1_38: y_6 + y_11 + y_32 + y_33 + y_38 + y_84 + y_89 + y_105 + y_167
   >= 1
 c_1_39: y_12 + y_30 + y_39 + y_45 + y_61 + y_98 + y_113 >= 1
 c_1_40: y_34 + y_35 + y_40 + y_41 + y_93 + y_100 + y_184 >= 1
 c_1_41: y_35 + y_40 + y_41 + y_93 + y_184 >= 1
 c_1_42: y_42 + y_80 + y_132 + y_136 + y_155 + y_173 >= 1
 c_1_43: y_11 + y_43 + y_84 + y_89 + y_145 + y_167 >= 1
 c_1_44: y_8 + y_44 + y_58 + y_166 >= 1
 c_1_45: y_39 + y_45 + y_46 + y_60 + y_61 + y_83 + y_98 + y_114 >= 1
 c_1_46: y_45 + y_46 + y_60 + y_61 + y_74 + y_98 + y_113 + y_114 >= 1
 c_1_47: y_1 + y_47 + y_153 + y_180 >= 1
 c_1_48: y_48 + y_92 + y_101 + y_152 + y_168 + y_178 + y_183 + y_195 >= 1
 c_1_49: y_49 + y_72 + y_82 + y_109 + y_144 + y_150 + y_181 + y_198 >= 1
 c_1_50: y_34 + y_50 + y_73 + y_100 + y_113 + y_116 >= 1
 c_1_51: y_51 + y_83 + y_97 + y_123 >= 1
 c_1_52: y_52 + y_57 + y_76 + y_149 + y_186 + y_190 + y_191 + y_196 + y_199
   >= 1
 c_1_53: y_5 + y_53 + y_108 + y_124 + y_133 + y_143 + y_162 + y_189 >= 1
 c_1_54: y_22 + y_37 + y_54 + y_117 + y_146 + y_161 + y_173 >= 1
 c_1_55: y_20 + y_25 + y_55 + y_67 + y_131 >= 1
 c_1_56: y_5 + y_56 + y_68 + y_79 + y_141 + y_171 >= 1
 c_1_57: y_52 + y_57 + y_149 + y_186 + y_190 + y_196 + y_199 >= 1
 c_1_58: y_15 + y_44 + y_58 + y_66 >= 1
 c_1_59: y_10 + y_27 + y_59 + y_90 + y_143 + y_148 + y_187 >= 1
 c_1_60: y_45 + y_46 + y_60 + y_61 + y_74 + y_98 + y_113 + y_114 >= 1
 c_1_61: y_39 + y_45 + y_46 + y_60 + y_61 + y_74 + y_98 + y_113 + y_114
   >= 1
 c_1_62: y_62 + y_78 + y_87 + y_94 + y_115 + y_147 + y_150 + y_170 + y_179
   >= 1
 c_1_63: y_35 + y_63 + y_77 + y_93 + y_109 + y_144 + y_182 + y_198 >= 1
 c_1_64: y_4 + y_64 + y_86 + y_88 + y_118 + y_142 + y_176 + y_194 >= 1
 c_1_65: y_15 + y_65 + y_66 + y_69 + y_92 + y_172 + y_195 >= 1
 c_1_66: y_15 + y_58 + y_65 + y_66 + y_69 + y_134 + y_172 + y_195 >= 1
 c_1_67: y_20 + y_22 + y_25 + y_37 + y_55 + y_67 + y_146 + y_154 >= 1
 c_1_68: y_56 + y_68 + y_79 + y_119 + y_141 + y_171 + y_193 >= 1
 c_1_69: y_15 + y_65 + y_66 + y_69 + y_172 + y_195 >= 1
 c_1_70: y_7 + y_14 + y_70 + y_81 + y_99 + y_110 + y_112 + y_120 + y_139
   + y_160 + y_163 >= 1
 c_1_71: y_23 + y_71 + y_95 + y_192 >= 1
 c_1_72: y_0 + y_49 + y_72 + y_153 + y_181 >= 1
 c_1_73: y_34 + y_50 + y_73 + y_98 + y_100 + y_113 + y_116 >= 1
 c_1_74: y_46 + y_60 + y_61 + y_74 + y_114 >= 1
 c_1_75: y_18 + y_75 + y_101 + y_168 >= 1
 c_1_76: y_1 + y_31 + y_52 + y_76 + y_79 + y_186 + y_191 + y_199 >= 1
 c_1_77: y_63 + y_77 + y_109 >= 1
 c_1_78: y_62 + y_78 + y_87 + y_94 + y_115 + y_147 + y_179 >= 1
 c_1_79: y_5 + y_56 + y_68 + y_76 + y_79 + y_119 + y_141 + y_171 + y_193
   >= 1
 c_1_80: y_42 + y_80 + y_132 + y_136 + y_155 + y_173 + y_178 >= 1
 c_1_81: y_7 + y_70 + y_81 + y_99 + y_129 + y_139 + y_151 + y_160 + y_163
   >= 1
 c_1_82: y_0 + y_49 + y_82 + y_87 + y_94 + y_150 + y_181 >= 1
 c_1_83: y_45 + y_51 + y_83 + y_114 >= 1
 c_1_84: y_11 + y_33 + y_38 + y_43 + y_84 + y_89 + y_105 + y_167 >= 1
 c_1_85: y_13 + y_85 + y_121 + y_197 >= 1
 c_1_86: y_4 + y_64 + y_86 + y_118 + y_142 + y_154 + y_159 + y_176 + y_194
   >= 1
 c_1_87: y_62 + y_78 + y_82 + y_87 + y_94 + y_115 + y_121 + y_147 + y_150
   + y_179 + y_197 >= 1
 c_1_88: y_4 + y_64 + y_88 + y_111 + y_118 + y_137 + y_194 >= 1
 c_1_89: y_11 + y_33 + y_38 + y_43 + y_84 + y_89 + y_105 + y_128 + y_145
   + y_157 + y_167 >= 1
 c_1_90: y_59 + y_90 + y_133 + y_143 + y_186 + y_189 >= 1
 c_1_91: y_9 + y_36 + y_91 + y_107 + y_169 + y_175 + y_180 >= 1
 c_1_92: y_48 + y_65 + y_92 + y_152 + y_172 + y_195 >= 1
 c_1_93: y_35 + y_40 + y_41 + y_63 + y_93 >= 1
 c_1_94: y_62 + y_78 + y_82 + y_87 + y_94 + y_115 + y_150 + y_170 + y_179
   >= 1
 c_1_95: y_9 + y_71 + y_95 + y_144 + y_175 + y_182 + y_198 >= 1
 c_1_96: y_96 >= 1
 c_1_97: y_51 + y_97 + y_123 >= 1
 c_1_98: y_30 + y_39 + y_45 + y_46 + y_60 + y_61 + y_73 + y_98 + y_113
   + y_114 >= 1
 c_1_99: y_7 + y_70 + y_81 + y_99 + y_110 + y_112 + y_120 + y_139 + y_160
   + y_163 >= 1
 c_1_100: y_34 + y_40 + y_50 + y_73 + y_100 + y_113 + y_116 + y_184 + y_188
   >= 1
 c_1_101: y_18 + y_48 + y_75 + y_101 + y_168 + y_183 >= 1
 c_1_102: y_13 + y_102 + y_103 + y_119 + y_153 + y_193 >= 1
 c_1_103: y_13 + y_102 + y_103 + y_119 + y_185 + y_193 >= 1
 c_1_104: y_23 + y_36 + y_104 + y_107 + y_111 + y_169 + y_176 >= 1
 c_1_105: y_11 + y_32 + y_33 + y_38 + y_84 + y_89 + y_105 + y_128 + y_157
   + y_167 >= 1
 c_1_106: y_12 + y_106 + y_110 + y_112 + y_126 + y_130 + y_163 + y_188
   + y_192 >= 1
 c_1_107: y_9 + y_36 + y_91 + y_104 + y_107 + y_169 + y_180 >= 1
 c_1_108: y_5 + y_17 + y_53 + y_108 + y_124 + y_143 + y_148 + y_162 + y_177
   + y_189 >= 1
 c_1_109: y_49 + y_63 + y_77 + y_109 + y_144 + y_182 + y_198 >= 1
 c_1_110: y_7 + y_70 + y_99 + y_106 + y_110 + y_112 + y_163 >= 1
 c_1_111: y_4 + y_23 + y_88 + y_104 + y_111 + y_118 >= 1
 c_1_112: y_7 + y_70 + y_99 + y_106 + y_110 + y_112 + y_163 >= 1
 c_1_113: y_34 + y_39 + y_46 + y_50 + y_60 + y_61 + y_73 + y_98 + y_100
   + y_113 + y_116 >= 1
 c_1_114: y_45 + y_46 + y_60 + y_61 + y_74 + y_83 + y_98 + y_114 >= 1
 c_1_115: y_26 + y_62 + y_78 + y_87 + y_94 + y_115 + y_121 + y_147 + y_156
   + y_179 + y_197 >= 1
 c_1_116: y_34 + y_50 + y_73 + y_100 + y_113 + y_116 + y_184 + y_188 >= 1
 c_1_117: y_2 + y_19 + y_22 + y_37 + y_54 + y_117 + y_146 + y_154 + y_161
   >= 1
 c_1_118: y_4 + y_64 + y_86 + y_88 + y_111 + y_118 + y_137 + y_154 + y_194
   >= 1
 c_1_119: y_1 + y_31 + y_68 + y_79 + y_102 + y_103 + y_119 + y_141 + y_171
   + y_193 >= 1
 c_1_120: y_2 + y_14 + y_19 + y_70 + y_99 + y_120 + y_139 + y_160 + y_164
   + y_165 >= 1
 c_1_121: y_26 + y_85 + y_87 + y_115 + y_121 + y_147 + y_156 + y_197 >= 1
 c_1_122: y_122 + y_187 >= 1
 c_1_123: y_51 + y_97 + y_123 + y_151 >= 1
 c_1_124: y_5 + y_17 + y_53 + y_108 + y_124 + y_143 + y_162 + y_189 >= 1
 c_1_125: y_3 + y_14 + y_125 + y_127 + y_129 + y_139 + y_165 >= 1
 c_1_126: y_12 + y_106 + y_126 + y_130 + y_188 + y_192 >= 1
 c_1_127: y_3 + y_14 + y_21 + y_28 + y_125 + y_127 + y_129 + y_165 >= 1
 c_1_128: y_33 + y_89 + y_105 + y_128 + y_145 + y_157 + y_167 >= 1
 c_1_129: y_3 + y_14 + y_21 + y_81 + y_125 + y_127 + y_129 + y_139 + y_160
   + y_174 >= 1
 c_1_130: y_12 + y_106 + y_126 + y_130 + y_188 + y_192 >= 1
 c_1_131: y_15 + y_20 + y_55 + y_131 >= 1
 c_1_132: y_42 + y_80 + y_132 + y_136 + y_155 + y_173 >= 1
 c_1_133: y_53 + y_90 + y_133 + y_186 + y_189 >= 1
 c_1_134: y_66 + y_134 >= 1
 c_1_135: y_135 + y_155 >= 1
 c_1_136: y_28 + y_42 + y_80 + y_132 + y_136 + y_155 + y_173 >= 1
 c_1_137: y_2 + y_4 + y_19 + y_88 + y_118 + y_137 + y_154 + y_194 >= 1
 c_1_138: y_16 + y_138 + y_140 >= 1
 c_1_139: y_3 + y_7 + y_14 + y_70 + y_81 + y_99 + y_120 + y_125 + y_129
   + y_139 + y_160 + y_165 >= 1
 c_1_140: y_16 + y_138 + y_140 + y_149 >= 1
 c_1_141: y_5 + y_56 + y_68 + y_79 + y_119 + y_141 + y_171 + y_193 >= 1
 c_1_142: y_29 + y_64 + y_86 + y_142 + y_159 + y_176 >= 1
 c_1_143: y_17 + y_53 + y_59 + y_90 + y_108 + y_124 + y_143 + y_148 + y_162
   + y_177 + y_187 + y_189 >= 1
 c_1_144: y_49 + y_63 + y_95 + y_109 + y_144 + y_175 + y_182 + y_198 >= 1
 c_1_145: y_11 + y_43 + y_89 + y_128 + y_145 + y_157 >= 1
 c_1_146: y_2 + y_19 + y_22 + y_37 + y_54 + y_67 + y_117 + y_146 + y_154
   + y_161 + y_194 >= 1
 c_1_147: y_26 + y_62 + y_78 + y_87 + y_115 + y_121 + y_147 + y_156 + y_179
   + y_197 >= 1
 c_1_148: y_10 + y_17 + y_27 + y_59 + y_108 + y_143 + y_148 + y_177 + y_187
   + y_189 >= 1
 c_1_149: y_52 + y_57 + y_140 + y_149 + y_186 + y_190 + y_196 + y_199 >= 1
 c_1_150: y_49 + y_62 + y_82 + y_87 + y_94 + y_150 + y_170 >= 1
 c_1_151: y_81 + y_123 + y_151 >= 1
 c_1_152: y_48 + y_92 + y_152 + y_178 + y_183 + y_195 >= 1
 c_1_153: y_47 + y_72 + y_102 + y_153 + y_180 >= 1
 c_1_154: y_2 + y_19 + y_22 + y_37 + y_67 + y_86 + y_117 + y_118 + y_137
   + y_146 + y_154 + y_194 >= 1
 c_1_155: y_28 + y_42 + y_80 + y_132 + y_135 + y_136 + y_155 >= 1
 c_1_156: y_26 + y_115 + y_121 + y_147 + y_156 + y_197 >= 1
 c_1_157: y_11 + y_89 + y_105 + y_128 + y_145 + y_157 + y_167 >= 1
 c_1_158: y_24 + y_158 >= 1
 c_1_159: y_29 + y_86 + y_142 + y_159 + y_176 + y_190 >= 1
 c_1_160: y_7 + y_14 + y_70 + y_81 + y_99 + y_120 + y_129 + y_139 + y_160
   + y_163 >= 1
 c_1_161: y_22 + y_37 + y_54 + y_117 + y_146 + y_161 >= 1
 c_1_162: y_5 + y_17 + y_53 + y_108 + y_124 + y_143 + y_162 + y_177 + y_189
   >= 1
 c_1_163: y_7 + y_70 + y_81 + y_99 + y_106 + y_110 + y_112 + y_160 + y_163
   >= 1
 c_1_164: y_2 + y_14 + y_19 + y_120 + y_164 + y_165 >= 1
 c_1_165: y_14 + y_120 + y_125 + y_127 + y_139 + y_164 + y_165 >= 1
 c_1_166: y_6 + y_8 + y_32 + y_33 + y_44 + y_166 >= 1
 c_1_167: y_11 + y_32 + y_33 + y_38 + y_43 + y_84 + y_89 + y_105 + y_128
   + y_157 + y_167 >= 1
 c_1_168: y_18 + y_24 + y_48 + y_75 + y_101 + y_168 + y_178 + y_183 >= 1
 c_1_169: y_9 + y_36 + y_91 + y_104 + y_107 + y_169 >= 1
 c_1_170: y_62 + y_94 + y_150 + y_170 >= 1
 c_1_171: y_56 + y_68 + y_79 + y_119 + y_141 + y_171 + y_193 >= 1
 c_1_172: y_15 + y_65 + y_66 + y_69 + y_92 + y_172 + y_195 >= 1
 c_1_173: y_42 + y_54 + y_80 + y_132 + y_136 + y_173 >= 1
 c_1_174: y_3 + y_21 + y_129 + y_174 >= 1
 c_1_175: y_9 + y_36 + y_91 + y_95 + y_144 + y_175 + y_182 + y_198 >= 1
 c_1_176: y_4 + y_29 + y_64 + y_86 + y_104 + y_142 + y_159 + y_176 >= 1
 c_1_177: y_17 + y_108 + y_143 + y_148 + y_162 + y_177 + y_187 + y_189
   >= 1
 c_1_178: y_24 + y_48 + y_80 + y_152 + y_168 + y_178 + y_183 >= 1
 c_1_179: y_62 + y_78 + y_87 + y_94 + y_115 + y_147 + y_179 >= 1
 c_1_180: y_47 + y_91 + y_107 + y_153 + y_180 >= 1
 c_1_181: y_0 + y_49 + y_72 + y_82 + y_181 >= 1
 c_1_182: y_63 + y_95 + y_109 + y_144 + y_175 + y_182 + y_198 >= 1
 c_1_183: y_24 + y_48 + y_101 + y_152 + y_168 + y_178 + y_183 >= 1
 c_1_184: y_34 + y_40 + y_41 + y_100 + y_116 + y_184 + y_188 >= 1
 c_1_185: y_103 + y_185 + y_193 >= 1
 c_1_186: y_52 + y_57 + y_76 + y_90 + y_133 + y_149 + y_186 + y_191 + y_199
   >= 1
 c_1_187: y_10 + y_27 + y_59 + y_122 + y_143 + y_148 + y_177 + y_187 >= 1
 c_1_188: y_12 + y_100 + y_106 + y_116 + y_126 + y_130 + y_184 + y_188
   + y_192 >= 1
 c_1_189: y_5 + y_17 + y_53 + y_90 + y_108 + y_124 + y_133 + y_143 + y_148
   + y_162 + y_177 + y_189 >= 1
 c_1_190: y_29 + y_52 + y_57 + y_149 + y_159 + y_190 + y_196 >= 1
 c_1_191: y_52 + y_76 + y_186 + y_191 + y_199 >= 1
 c_1_192: y_71 + y_106 + y_126 + y_130 + y_188 + y_192 >= 1
 c_1_193: y_68 + y_79 + y_102 + y_103 + y_119 + y_141 + y_171 + y_185
   + y_193 >= 1
 c_1_194: y_4 + y_19 + y_64 + y_86 + y_88 + y_118 + y_137 + y_146 + y_154
   + y_194 >= 1
 c_1_195: y_48 + y_65 + y_66 + y_69 + y_92 + y_152 + y_172 + y_195 >= 1
 c_1_196: y_52 + y_57 + y_149 + y_190 + y_196 + y_199 >= 1
 c_1_197: y_26 + y_85 + y_87 + y_115 + y_121 + y_147 + y_156 + y_197 >= 1
 c_1_198: y_49 + y_63 + y_95 + y_109 + y_144 + y_175 + y_182 + y_198 >= 1
 c_1_199: y_52 + y_57 + y_76 + y_149 + y_186 + y_191 + y_196 + y_199 >= 1
Bounds
 Constant = 1
Binaries
 y_0 y_1 y_2 y_3 y_4 y_5 y_6 y_7 y_8 y_9 y_10 y_11 y_12 y_13 y_14 y_15 y_16
 y_17 y_18 y_19 y_20 y_21 y_22 y_23 y_24 y_25 y_26 y_27 y_28 y_29 y_30 y_31
 y_32 y_33 y_34 y_35 y_36 y_37 y_38 y_39 y_40 y_41 y_42 y_43 y_44 y_45 y_46
 y_47 y_48 y_49 y_50 y_51 y_52 y_53 y_54 y_55 y_56 y_57 y_58 y_59 y_60 y_61
 y_62 y_63 y_64 y_65 y_66 y_67 y_68 y_69 y_70 y_71 y_72 y_73 y_74 y_75 y_76
 y_77 y_78 y_79 y_80 y_81 y_82 y_83 y_84 y_85 y_86 y_87 y_88 y_89 y_90 y_91
 y_92 y_93 y_94 y_95 y_96 y_97 y_98 y_99 y_100 y_101 y_102 y_103 y_104
 y_105 y_106 y_107 y_108 y_109 y_110 y_111 y_112 y_113 y_114 y_115 y_116
 y_117 y_118 y_119 y_120 y_121 y_122 y_123 y_124 y_125 y_126 y_127 y_128
 y_129 y_130 y_131 y_132 y_133 y_134 y_135 y_136 y_137 y_138 y_139 y_140
 y_141 y_142 y_143 y_144 y_145 y_146 y_147 y_148 y_149 y_150 y_151 y_152
 y_153 y_154 y_155 y_156 y_157 y_158 y_159 y_160 y_161 y_162 y_163 y_164
 y_165 y_166 y_167 y_168 y_169 y_170 y_171 y_172 y_173 y_174 y_175 y_176
 y_177 y_178 y_179 y_180 y_181 y_182 y_183 y_184 y_185 y_186 y_187 y_188
 y_189 y_190 y_191 y_192 y_193 y_194 y_195 y_196 y_197 y_198 y_199
End
